#######################
Slurm job id: 17497813_117
Running on machine: p77
Running cmd: /nfs/shared/static-builds/gurobi1003 SOFTMEMLIMIT=125 MIPFocus=2 Presolve=1 TimeLimit=300 seed=6 /nfs/models/miplib2010/k16x240.mps.bz2
#######################
Set parameter TimeLimit to value 300
Set parameter SoftMemLimit to value 125
Set parameter MIPFocus to value 2
Set parameter LogFile to value 1003-MIPFocus2-Presolve1-TimeLimit300-k16x240-6.log
Set parameter Presolve to value 1
Set parameter Seed to value 6
Using license file /opt/gurobi/gurobi.lic

Gurobi Optimizer version 10.0.3 build v10.0.3rc0 (linux64)
Copyright (c) 2023, Gurobi Optimization, LLC

Read MPS format model from file /nfs/models/miplib2010/k16x240.mps.bz2
Reading time = 0.00 seconds
k16x240: 256 rows, 480 columns, 960 nonzeros

CPU model: Intel(R) Xeon(R) E-2388G CPU @ 3.20GHz, instruction set [SSE2|AVX|AVX2|AVX512]
Thread count: 8 physical cores, 16 logical processors, using up to 16 threads

Optimize a model with 256 rows, 480 columns and 960 nonzeros
Model fingerprint: 0x4e80885f
Variable types: 240 continuous, 240 integer (240 binary)
Coefficient statistics:
  Matrix range     [1e+00, 1e+03]
  Objective range  [1e+00, 1e+03]
  Bounds range     [1e+00, 1e+03]
  RHS range        [4e+00, 4e+02]
Found heuristic solution: objective 19315.000000
Presolve time: 0.00s
Presolved: 256 rows, 480 columns, 960 nonzeros
Variable types: 240 continuous, 240 integer (240 binary)

Root relaxation: objective 2.769838e+03, 51 iterations, 0.00 seconds (0.00 work units)

    Nodes    |    Current Node    |     Objective Bounds      |     Work
 Expl Unexpl |  Obj  Depth IntInf | Incumbent    BestBd   Gap | It/Node Time

     0     0 2769.83800    0   14 19315.0000 2769.83800  85.7%     -    0s
H    0     0                    11359.000000 2769.83800  75.6%     -    0s
H    0     0                    11195.000000 2769.83800  75.3%     -    0s
H    0     0                    11074.000000 8116.87580  26.7%     -    0s
     0     0 8116.87580    0   26 11074.0000 8116.87580  26.7%     -    0s
H    0     0                    10916.000000 8116.87580  25.6%     -    0s
H    0     0                    10826.000000 8588.30479  20.7%     -    0s
     0     0 8588.30479    0   25 10826.0000 8588.30479  20.7%     -    0s
     0     0 8613.92228    0   22 10826.0000 8613.92228  20.4%     -    0s
H    0     0                    10779.000000 8720.79342  19.1%     -    0s
     0     0 8720.79342    0   17 10779.0000 8720.79342  19.1%     -    0s
H    0     0                    10681.000000 8720.79342  18.4%     -    0s
     0     0 8842.48840    0   27 10681.0000 8842.48840  17.2%     -    0s
     0     0 8855.51917    0   34 10681.0000 8855.51917  17.1%     -    0s
     0     0 8861.19351    0   34 10681.0000 8861.19351  17.0%     -    0s
     0     0 9020.97712    0   43 10681.0000 9020.97712  15.5%     -    0s
     0     0 9038.33929    0   42 10681.0000 9038.33929  15.4%     -    0s
     0     0 9057.54191    0   44 10681.0000 9057.54191  15.2%     -    0s
     0     0 9075.93412    0   46 10681.0000 9075.93412  15.0%     -    0s
     0     0 9080.58601    0   47 10681.0000 9080.58601  15.0%     -    0s
     0     0 9101.51549    0   27 10681.0000 9101.51549  14.8%     -    0s
     0     0 9110.52989    0   34 10681.0000 9110.52989  14.7%     -    0s
     0     0 9148.47287    0   34 10681.0000 9148.47287  14.3%     -    0s
     0     0 9148.47287    0   34 10681.0000 9148.47287  14.3%     -    0s
     0     2 9148.47287    0   34 10681.0000 9148.47287  14.3%     -    0s
H  716   607                    10678.000000 9330.09007  12.6%  18.2    0s
H  764   607                    10674.000000 9330.09007  12.6%  17.9    0s
 29590 10794 10452.9362   37   21 10674.0000 10053.8792  5.81%  24.3    5s
 79106 16712 10523.6619   29   25 10674.0000 10273.8853  3.75%  25.2   10s
 120160  9866     cutoff   34      10674.0000 10446.4485  2.13%  25.3   15s

Cutting planes:
  Gomory: 2
  Lift-and-project: 16
  Cover: 85
  Implied bound: 32
  MIR: 190
  Flow cover: 291
  Flow path: 42
  Inf proof: 1
  Zero half: 16
  Network: 51
  Relax-and-lift: 5

Explored 138975 nodes (3412967 simplex iterations) in 17.41 seconds (21.46 work units)
Thread count was 16 (of 16 available processors)

Solution count 10: 10674 10678 10681 ... 19315

Optimal solution found (tolerance 1.00e-04)
Best objective 1.067400000000e+04, best bound 1.067400000000e+04, gap 0.0000%
